
(set-logic ALL) 

(declare-datatype MyList ((Nil) (Cons (head Real) (tail MyList)) )) 
(declare-fun l0 () MyList) 
(declare-fun l1 () MyList) 
(declare-fun l2 () MyList) 
(declare-fun l3 () MyList) 
(declare-fun i0 () Real) 
(declare-fun i1 () Real) 
(assert (not (= l3 l0)) )
(assert (= l3 Nil) )
(assert (or (is-Nil Nil) (= l1 Nil) (= l1 l0) (= l2 Nil)) )
(assert (and (= l2 Nil) (= l3 Nil) (is-Cons Nil) (is-Cons l3)) )
(assert (= l2 l2) )
(assert (not (= l0 Nil)) )
(assert (not (is-Cons Nil)) )
(assert (is-Nil Nil) )
(check-sat)
